9357
1 1 0 1 1 1 0 0 1 1 
4 4 4 4 4 4 4 4 0 0 4 0 0 0 0 0 1 8 1 5 1 1 1 3 3 3 3 3 8 8 9 3 3 3 3 3 3 3 3 3 4 0 1 1 9 8 0 5 3 5 5 4 4 5 8 8 5 5 9 5 5 4 3 3 0 5 0 8 1 4 4 3 5 5 5 9 4 0 4 8 5 9 9 3 9 3 4 5 5 5 
